7265036091772622229504,7,1,2,04,9,1,2,04,13,1,2,04,7,1,2,09,12,1,2,02,11,1,2,07,12,1,2,03,11,1,2,04,11,1,2,06,10,1,2,08,8,1,2,01,14,1,2,014,9,1,2,011,1,1,2,05,9,1,2,07,5,1,2,011,6,1,2,01,7,1,2,05,11,1,2,010,8,1,2,014,6,1,2,014,15,1,2,011,11,1,2,013,3,1,2,09,8,1,2,05,3,1,2,010,15,1,2,05,7,1,2,07,13,1,2,010,2,1,2,012,2,1,2,08,15,1,2,012,6,1,2,08,12,1,2,02,4,1,2,015,10,1,2,013,8,1,2,09,9,1,2,07,3,1,2,015,9,1,2,015,10,1,2,05,14,1,2,02,1,1,2,07,8,1,2,015,9,1,2,08,4,1,2,04,9,1,2,011,11,1,2,011,6,1,2,07,12,1,2,0